Instance name:    bar-n200-5
Authors:          PDPTW Solver
Date:             2025-11-21
Reference:        LNS with SA/RTR
Solution
Route 1 : 42 142 36 84 136 74 24 124 95 195 174 90 190 184 30 130 12 112 56 156 77 25 125 55 155 2 16 116 102 177 62 99 199 57 157 162
Route 2 : 94 194 33 82 182 49 149 41 141 72 10 110 172 8 108 91 191 58 133 52 152 21 7 81 158 181 107 37 26 126 137 31 131 121 18 118 39 139 45 4 104 70 170 145
Route 3 : 86 186 6 106 64 164 78 9 109 178 89 189 71 59 159 171 1 23 123 101 14 114 27 127 20 120 88 68 168 43 188 76 176 143 66 166 15 115 28 128 5 105 96 196
Route 4 : 22 34 122 85 185 44 144 134 29 80 180 40 140 38 97 138 83 183 100 200 51 197 151 65 165 98 198 129 69 79 179 169 48 148 35 135 60 160
Route 5 : 17 47 147 117 19 119 11 3 92 111 192 103 87 187 50 150 63 163 46 146 75 175 93 193 54 154 61 53 153 67 167 13 113 161 32 132 73 173
